db/inputs/15227149202909116050192471406027835299.smt2
(set-logic QF_FP)
(declare-const x0 (_ FloatingPoint 8 24))
(declare-const x1 (_ FloatingPoint 8 24))
(declare-const x2 (_ FloatingPoint 8 24))
(declare-const x3 (_ FloatingPoint 8 24))
(declare-const x4 (_ FloatingPoint 8 24))
(declare-const x5 (_ FloatingPoint 8 24))
(declare-const x6 (_ FloatingPoint 8 24))
(declare-const x7 (_ FloatingPoint 8 24))
(declare-const x8 (_ FloatingPoint 8 24))
(declare-const x9 (_ FloatingPoint 8 24))
(declare-const x10 (_ FloatingPoint 8 24))
(declare-const x11 (_ FloatingPoint 8 24))
(declare-const x12 (_ FloatingPoint 8 24))
(assert (fp.eq (fp.neg x9) (fp.mul RNE x3 x10)))
(assert (fp.lt (fp.neg x11) (fp.div RNE x3 x0)))
(assert (fp.geq (fp.div RNE x5 x5) (fp.sub RNE x4 x2)))
(assert (fp.leq (fp.add RNE x3 x4) (fp.add RNE x11 x3)))
(assert (fp.lt (fp.neg x12) (fp.mul RNE x8 x3)))
(check-sat)
