db/data/15227149202909116050192471406027835299.z3.out
sat
-------------------
9.033674060
